71 300 22 140 192 133 191 46 71 73 60 50 68 89 141 179 144 63 56 192 13 65 142 85 109 153 158 6 109 100 56 106 70 30 198 13 114 188 10 184 60 70 185 80 158 125 58 53 140 65 196 152 129 137 36 37 41 145 194 102 44 2 159 65 31 156 78 96 143 39 79 155 108 